p cnf 39 108
a 8 30 0
e 1 2 3 4 5 6 7 9 10 11 12 13 14 15 16 17 18 19 20 21 22 23 24 25 26 27 28 29 31 32 33 34 35 36 37 38 39 0
3 1 0
3 2 0
-1 -2 -3 0
-4 -1 0
-4 3 0
1 -3 4 0
-6 -4 0
-6 -5 0
4 5 6 0
2 -7 -8 0
-2 7 -8 0
2 7 8 0
-2 -7 8 0
11 9 0
11 -10 0
-9 10 -11 0
-2 12 -13 0
2 -12 -13 0
-2 -12 13 0
2 12 13 0
-11 -13 -14 0
11 13 -14 0
-11 13 14 0
11 -13 14 0
-15 -14 0
-15 9 0
14 -9 15 0
-16 -8 0
-16 -15 0
8 15 16 0
-17 6 0
-17 -16 0
-6 16 17 0
19 -18 0
19 -13 0
18 13 -19 0
-20 -18 0
-20 -19 0
18 19 20 0
-20 21 -22 0
20 -21 -22 0
-20 -21 22 0
20 21 22 0
-17 22 -23 0
17 -22 -23 0
-17 -22 23 0
17 22 23 0
24 18 0
24 -20 0
-18 20 -24 0
-26 -25 0
-26 9 0
25 -9 26 0
-27 24 0
-27 -26 0
-24 26 27 0
-28 -9 0
-28 -9 0
9 28 0
28 7 -29 0
-28 -7 -29 0
28 -7 29 0
-28 7 29 0
10 1 -30 0
-10 -1 -30 0
10 -1 30 0
-10 1 30 0
31 -30 0
31 11 0
30 -11 -31 0
-32 12 0
-32 -2 0
-12 2 32 0
33 -3 0
33 -13 0
3 13 -33 0
-3 -33 -34 0
3 33 -34 0
-3 33 34 0
3 -33 34 0
32 -34 -35 0
-32 34 -35 0
32 34 35 0
-32 -34 35 0
36 31 0
36 -35 0
-31 35 -36 0
-37 -29 0
-37 -36 0
29 36 37 0
27 37 -38 0
-27 -37 -38 0
27 -37 38 0
-27 37 38 0
39 -23 0
39 -38 0
23 38 -39 0
-16 -2 -29 24 21 7 0
-28 2 37 0
-10 -38 14 37 -16 -36 -19 0
-20 -15 -38 -16 0
27 -2 20 0
-37 -8 -17 -15 -9 0
-2 -19 16 36 -35 0
33 -7 -29 36 30 2 6 0
-30 -18 -27 0
11 -26 -27 0
39 0
